Gurobi Optimizer version 10.0.3 build v10.0.3rc0 (win64)

CPU model: 13th Gen Intel(R) Core(TM) i7-13700T, instruction set [SSE2|AVX|AVX2]
Thread count: 16 physical cores, 24 logical processors, using up to 24 threads

Optimize a model with 1102885 rows, 1963529 columns and 3133885 nonzeros
Model fingerprint: 0x3f228486
Variable types: 0 continuous, 1963529 integer (346800 binary)
Coefficient statistics:
  Matrix range     [1e+00, 1e+00]
  Objective range  [7e+00, 3e+02]
  Bounds range     [1e+00, 1e+00]
  RHS range        [1e+00, 6e+02]
Presolve removed 1102885 rows and 1963529 columns
Presolve time: 1.36s
Presolve: All rows and columns removed

Explored 0 nodes (0 simplex iterations) in 1.74 seconds (3.13 work units)
Thread count was 1 (of 24 available processors)

Solution count 1: 114834 

Optimal solution found (tolerance 1.00e-04)
Best objective 1.148341400000e+05, best bound 1.148341400000e+05, gap 0.0000%
Valor da função objetivo:  114834.13999999998

Tempo para criar o modelo:  25.500792503356934
